439
0 3 4 5 6 7 8 9 10 11 12 13 14 15 16 32 33 34 35 36 37 38 39 40 42 41 43 44 45 48 47 46 55 81 80 79 78 56 57 77 85 86 76 58 59 60 75 74 61 31 30 29 27 25 26 28 62 72 73 63 24 22 23 21 20 19 17 18 66 65 64 67 68 69 70 71 87 88 89 90 103 104 105 106 107 108 109 110 111 145 143 146 147 144 184 189 223 222 221 190 183 191 182 192 193 194 195 196 197 198 199 175 176 177 178 179 180 181 153 152 151 150 149 142 112 113 102 101 91 92 93 100 99 94 95 96 97 98 127 128 129 130 131 132 166 167 169 168 165 164 163 162 161 133 134 135 123 125 126 124 122 121 119 116 114 115 117 118 120 138 139 140 141 154 155 156 158 157 137 136 159 160 174 203 173 172 171 170 207 206 205 204 202 201 200 211 212 213 214 215 216 217 218 219 220 237 236 235 234 233 232 271 270 269 268 267 266 265 264 238 239 240 241 242 243 244 245 246 210 209 247 248 249 250 208 252 251 254 253 255 256 257 258 259 260 261 262 263 306 307 308 309 310 311 312 313 314 315 316 317 318 319 320 321 322 323 324 325 326 327 328 330 331 329 302 303 305 304 301 300 272 273 274 275 276 277 278 293 294 295 296 297 298 299 332 333 334 335 336 337 338 359 369 360 361 362 363 364 365 366 367 368 377 384 385 386 387 400 399 401 403 404 416 417 427 428 430 415 414 418 419 420 413 388 389 379 378 376 375 344 345 347 346 348 349 351 350 352 353 354 356 355 357 358 292 291 290 289 288 287 339 286 285 284 279 231 230 224 188 187 186 229 280 281 343 342 341 340 373 374 380 372 370 371 382 381 383 393 394 392 396 395 397 390 391 398 405 406 412 411 422 421 431 432 429 426 423 425 424 409 410 408 407 402 433 437 436 435 434 438 283 282 227 228 226 225 185 148 84 83 82 52 53 54 49 50 51 1 2 
